nN = 5;
nR = 30;
nH = 1;

a = [[16, 16, 13, 20, 22, 24, 15, 25, 18, 25, 11, 19, 20, 21, 17, 16, 16, 21, 17, 13, 13, 17, 14, 12, 24, 20, 15, 22, 15, 12], [14, 15, 19, 16, 22, 18, 13, 11, 21, 24, 14, 23, 21, 20, 13, 11, 25, 19, 21, 14, 18, 19, 15, 25, 23, 17, 19, 15, 13, 25], [25, 23, 19, 17, 11, 19, 16, 25, 11, 23, 15, 17, 21, 13, 18, 18, 22, 13, 20, 23, 24, 16, 24, 16, 23, 15, 10, 23, 23, 14], [11, 16, 12, 16, 13, 11, 18, 14, 21, 15, 11, 10, 20, 13, 13, 17, 17, 13, 17, 19, 20, 17, 14, 21, 23, 17, 19, 18, 22, 12], [18, 11, 24, 18, 13, 14, 14, 14, 21, 19, 20, 25, 22, 18, 24, 23, 21, 17, 23, 23, 17, 20, 23, 24, 19, 15, 15, 14, 24, 15]];
c = [[[0, 0, 0, 0, 0, 0, 0, 0, 0, 0, 0, 0, 0, 0, 0, 0, 0, 0, 0, 0, 0, 0, 0, 0, 0, 0, 0, 0, 0, 0], [45, 41, 47, 44, 31, 40, 46, 49, 31, 35, 40, 42, 34, 34, 43, 49, 39, 34, 39, 42, 47, 49, 34, 48, 32, 49, 46, 50, 43, 48], [43, 46, 44, 45, 31, 32, 47, 36, 43, 38, 40, 43, 32, 41, 43, 42, 39, 44, 45, 37, 44, 42, 50, 47, 35, 45, 39, 38, 42, 30], [37, 39, 43, 31, 35, 46, 50, 35, 36, 47, 42, 44, 49, 32, 38, 41, 50, 40, 48, 40, 40, 33, 31, 30, 43, 32, 32, 35, 31, 45], [31, 48, 44, 34, 40, 33, 30, 43, 49, 42, 41, 47, 30, 50, 41, 38, 48, 44, 49, 49, 34, 48, 50, 34, 32, 48, 40, 37, 45, 36]], [[0, 0, 0, 0, 0, 0, 0, 0, 0, 0, 0, 0, 0, 0, 0, 0, 0, 0, 0, 0, 0, 0, 0, 0, 0, 0, 0, 0, 0, 0], [0, 0, 0, 0, 0, 0, 0, 0, 0, 0, 0, 0, 0, 0, 0, 0, 0, 0, 0, 0, 0, 0, 0, 0, 0, 0, 0, 0, 0, 0], [34, 34, 39, 41, 49, 43, 38, 35, 47, 44, 31, 37, 44, 32, 36, 33, 49, 43, 38, 30, 33, 40, 35, 48, 50, 30, 30, 33, 32, 48], [39, 30, 33, 48, 41, 44, 32, 40, 46, 42, 37, 50, 45, 43, 30, 48, 41, 31, 31, 44, 46, 39, 36, 30, 35, 48, 42, 30, 45, 39], [31, 38, 33, 45, 41, 39, 48, 38, 44, 45, 46, 47, 45, 35, 36, 43, 45, 30, 42, 40, 38, 41, 50, 48, 48, 44, 48, 47, 30, 40]], [[0, 0, 0, 0, 0, 0, 0, 0, 0, 0, 0, 0, 0, 0, 0, 0, 0, 0, 0, 0, 0, 0, 0, 0, 0, 0, 0, 0, 0, 0], [0, 0, 0, 0, 0, 0, 0, 0, 0, 0, 0, 0, 0, 0, 0, 0, 0, 0, 0, 0, 0, 0, 0, 0, 0, 0, 0, 0, 0, 0], [0, 0, 0, 0, 0, 0, 0, 0, 0, 0, 0, 0, 0, 0, 0, 0, 0, 0, 0, 0, 0, 0, 0, 0, 0, 0, 0, 0, 0, 0], [46, 48, 38, 48, 46, 50, 37, 45, 40, 45, 50, 42, 50, 47, 48, 32, 47, 49, 36, 33, 40, 44, 33, 43, 39, 50, 42, 45, 44, 41], [32, 40, 34, 38, 33, 45, 48, 36, 36, 35, 47, 42, 43, 37, 44, 46, 36, 32, 33, 30, 30, 45, 48, 44, 50, 41, 41, 50, 32, 49]], [[0, 0, 0, 0, 0, 0, 0, 0, 0, 0, 0, 0, 0, 0, 0, 0, 0, 0, 0, 0, 0, 0, 0, 0, 0, 0, 0, 0, 0, 0], [0, 0, 0, 0, 0, 0, 0, 0, 0, 0, 0, 0, 0, 0, 0, 0, 0, 0, 0, 0, 0, 0, 0, 0, 0, 0, 0, 0, 0, 0], [0, 0, 0, 0, 0, 0, 0, 0, 0, 0, 0, 0, 0, 0, 0, 0, 0, 0, 0, 0, 0, 0, 0, 0, 0, 0, 0, 0, 0, 0], [0, 0, 0, 0, 0, 0, 0, 0, 0, 0, 0, 0, 0, 0, 0, 0, 0, 0, 0, 0, 0, 0, 0, 0, 0, 0, 0, 0, 0, 0], [46, 38, 49, 34, 36, 47, 47, 31, 44, 48, 34, 35, 49, 34, 40, 42, 36, 43, 37, 44, 47, 48, 44, 33, 37, 30, 43, 41, 40, 37]], [[0, 0, 0, 0, 0, 0, 0, 0, 0, 0, 0, 0, 0, 0, 0, 0, 0, 0, 0, 0, 0, 0, 0, 0, 0, 0, 0, 0, 0, 0], [0, 0, 0, 0, 0, 0, 0, 0, 0, 0, 0, 0, 0, 0, 0, 0, 0, 0, 0, 0, 0, 0, 0, 0, 0, 0, 0, 0, 0, 0], [0, 0, 0, 0, 0, 0, 0, 0, 0, 0, 0, 0, 0, 0, 0, 0, 0, 0, 0, 0, 0, 0, 0, 0, 0, 0, 0, 0, 0, 0], [0, 0, 0, 0, 0, 0, 0, 0, 0, 0, 0, 0, 0, 0, 0, 0, 0, 0, 0, 0, 0, 0, 0, 0, 0, 0, 0, 0, 0, 0], [0, 0, 0, 0, 0, 0, 0, 0, 0, 0, 0, 0, 0, 0, 0, 0, 0, 0, 0, 0, 0, 0, 0, 0, 0, 0, 0, 0, 0, 0]]];

q = [[[7], [10], [9], [13], [22], [18], [19], [17], [18], [15], [5], [9], [11], [18], [21], [20], [19], [21], [21], [7], [23], [24], [15], [14], [18], [10], [19], [5], [22], [13]], [[24], [25], [12], [24], [15], [21], [20], [14], [25], [13], [14], [6], [16], [21], [7], [24], [7], [14], [7], [18], [13], [24], [22], [20], [10], [21], [20], [11], [10], [24]], [[12], [13], [7], [13], [16], [7], [14], [25], [23], [18], [10], [14], [16], [24], [24], [16], [15], [12], [13], [7], [18], [16], [19], [12], [13], [22], [24], [17], [12], [19]], [[19], [5], [7], [15], [16], [9], [18], [6], [7], [22], [8], [10], [14], [5], [9], [20], [6], [11], [9], [5], [6], [20], [25], [17], [19], [11], [15], [18], [24], [7]], [[10], [15], [13], [24], [11], [13], [17], [6], [9], [19], [21], [21], [12], [14], [18], [8], [17], [24], [8], [20], [15], [18], [25], [19], [7], [16], [15], [15], [6], [11]]];
Q = [[76], [80], [75], [62], [72]];
